site/input/auxiliary/CO2_RCP85.rcp
1951  313
1952  313
1953  314
1954  314
1955  315
1956  315
1957  315
1958  316
1959  316
1960  317
1961  317
1962  318
1963  318
1964  319
1965  320
1966  321
1967  322
1968  323
1969  324
1970  325
1971  326
1972  327
1973  329
1974  330
1975  331
1976  332
1977  333
1978  335
1979  337
1980  338
1981  340
1982  341
1983  342
1984  344
1985  345
1986  347
1987  349
1988  351
1989  352
1990  354
1991  355
1992  356
1993  357
1994  358
1995  360
1996  361
1997  363
1998  365
1999  367
2000  369
2001  370
2002  373
2003  375
2004  377
2005  379
2006  381
2007  383
2008  385
2009  387
2010  389
2011  392
2012  394
2013  396
2014  399
2015  402
2016  404
2017  407
2018  410
2019  413
2020  416
2021  419
2022  422
2023  425
2024  428
2025  431
2026  435
2027  438
2028  442
2029  445
2030  449
2031  452
2032  456
2033  460
2034  464
2035  468
2036  472
2037  476
2038  481
2039  485
2040  489
2041  494
2042  499
2043  504
2044  508
2045  513
2046  519
2047  524
2048  529
2049  535
2050  541
2051  546
2052  552
2053  558
2054  564
2055  571
2056  577
2057  583
2058  590
2059  597
2060  604
2061  611
2062  618
2063  625
2064  632
2065  639
2066  647
2067  654
2068  662
2069  669
2070  677
2071  685
2072  693
2073  701
2074  709
2075  717
2076  725
2077  733
2078  742
2079  750
2080  758
2081  767
2082  775
2083  784
2084  792
2085  801
2086  810
2087  818
2088  827
2089  836
2090  845
2091  854
2092  863
2093  872
2094  881
2095  890
2096  899
2097  908
2098  917
2099  927
2100  936
