inst/defaultDir/input/auxiliary/CO2_RCP85.txt
1951  311.1
1952  311.5
1953  311.9
1954  312.4
1955  313.0
1956  313.6
1957  314.2
1958  314.9
1959  316.0
1960  316.9
1961  317.6
1962  318.5
1963  319.0
1964  319.6
1965  320.0
1966  321.4
1967  322.2
1968  323.0
1969  324.6
1970  325.7
1971  326.3
1972  327.5
1973  329.7
1974  330.2
1975  331.1
1976  332.0
1977  333.8
1978  335.4
1979  336.8
1980  338.8
1981  340.1
1982  341.5
1983  343.1
1984  344.7
1985  346.1
1986  347.4
1987  349.2
1988  351.6
1989  353.1
1990  354.4
1991  355.6
1992  356.5
1993  357.1
1994  358.8
1995  360.8
1996  362.6
1997  363.7
1998  366.7
1999  368.4
2000  369.6
2001  371.1
2002  373.3
2003  375.8
2004  377.5
2005  379.8
2006  381.9
2007  383.8
2008  385.6
2009  387.4
2010  389.9
2011  391.7
2012  393.9
2013  396.5
2014  398.7
2015  400.8
2016  404.2
2017  406.6
2018  408.5
2019  413
2020  416
2021  419
2022  422
2023  425
2024  428
2025  431
2026  435
2027  438
2028  442
2029  445
2030  449
2031  452
2032  456
2033  460
2034  464
2035  468
2036  472
2037  476
2038  481
2039  485
2040  489
2041  494
2042  499
2043  504
2044  508
2045  513
2046  519
2047  524
2048  529
2049  535
2050  541
2051  546
2052  552
2053  558
2054  564
2055  571
2056  577
2057  583
2058  590
2059  597
2060  604
2061  611
2062  618
2063  625
2064  632
2065  639
2066  647
2067  654
2068  662
2069  669
2070  677
2071  685
2072  693
2073  701
2074  709
2075  717
2076  725
2077  733
2078  742
2079  750
2080  758
2081  767
2082  775
2083  784
2084  792
2085  801
2086  810
2087  818
2088  827
2089  836
2090  845
2091  854
2092  863
2093  872
2094  881
2095  890
2096  899
2097  908
2098  917
2099  927
2100  936
